\ Created by MOSEK version 3.1.1.38
minimize
 obj: - 10 x1 - 9 x2 
st
 c1: + 7e-01 x1 + x2 <= 630
 c2: + 5e-01 x1 + 8.333333333e-01 x2 <= 600
 c3: + x1 + 6.6666667e-01 x2 <= 708
 c4: + 1e-01 x1 + 2.5e-01 x2 <= 135
bounds
x2 >= 650
end

